20	5
0	3	2	3	1
1	1	19
2	1	4
3	2	10	6
4	0
5	1	8
6	3	13	17	16
7	1	9
8	2	7	15
9	2	6	18
10	1	18
11	2	14	5
12	1	20
13	1	21
14	1	21
15	1	21
16	1	21
17	1	21
18	1	21
19	1	21
20	1	21
21	0
0	0	0	0	0	0	0
1	7	2	0	2	0	5
2	8	4	0	3	5	0
3	6	5	5	0	2	1
4	3	0	0	0	0	2
5	3	0	0	2	2	0
6	8	0	0	0	4	2
7	3	0	1	0	3	0
8	8	0	3	2	4	0
9	8	3	0	0	1	4
10	8	4	0	5	0	0
11	6	4	0	0	0	1
12	4	1	5	3	0	4
13	1	4	0	0	3	5
14	3	3	0	0	1	0
15	5	4	0	0	0	0
16	1	3	1	1	0	2
17	2	0	0	0	0	5
18	8	3	0	0	3	0
19	1	1	0	0	2	5
20	9	0	4	3	3	0
21	0	0	0	0	0	0
9	5	7	7	6
